175
252
558
528
266
486
572
238
204
40
330
94
396
150
387
256
833
312
504
45
420
936
246
434
960
222
494
880
66
100
600
377
828
504
150
630
434
392
304
162
810
238
867
820
390
329
259
416
602
96
850
429
112
828
455
312
546
465
192
296
378
792
330
204
40
87
329
180
425
258
224
392
760
140
180
612
884
328
360
288
555
520
132
561
800
429
29
598
560
400
546
124
98
532
324
836
204
51
720
510
